164859.98,52.91,65.61
168016.39,51.92,64.38
174421.89,50.01,62.02
173770.43,50.2,62.25
168298.69,51.83,64.27
178693.98,48.81,60.53
162069.3,53.82,66.74
163860.06,53.23,66.01
183706.19,47.48,58.88
172999.04,50.42,62.53
174022.37,50.12,62.16
153947.19,56.66,70.26
180344.58,48.37,59.98
173806.85,50.19,62.23
164634.55,52.98,65.7
174593.87,49.96,61.95
171867.86,50.75,62.94
175789.63,49.62,61.53
163137.64,53.47,66.3
167561.44,52.06,64.55
